p cnf 579 2020
c ind 571 572 574 575 573 570 576 577 556 559 0
c ind 548 551 527 524 532 535 540 543 564 567 0
c ind 516 519 508 511 547 555 531 534 550 558 0
c ind 563 526 539 566 515 542 518 523 507 510 0
c ind 546 533 549 557 530 554 525 565 541 562 0
c ind 509 517 506 514 522 538 536 537 552 553 0
c ind 560 561 528 529 512 513 544 545 520 521 0
c ind 568 569 1 0
c ret 426 435 436 437 438 439 440 441 442 443 0
c ret 444 427 445 446 447 448 449 450 451 452 0
c ret 453 454 428 455 456 457 458 459 460 461 0
c ret 462 463 464 429 465 466 467 468 469 470 0
c ret 471 472 473 474 430 475 476 477 478 479 0
c ret 480 481 482 483 484 431 485 486 487 488 0
c ret 489 490 491 492 493 494 432 495 496 497 0
c ret 498 499 500 501 502 503 504 433 505 434 0
2 3 -242 -326 -351 0
-2 -3 0
-2 351 0
-2 326 0
-2 242 0
3 -4 -142 -165 -197 0
-3 197 0
-3 4 0
-3 165 0
-3 142 0
4 -5 -43 63 -136 0
-4 136 0
-4 5 0
-4 43 0
-4 -63 0
5 -6 -26 -34 -38 0
-5 38 0
-5 6 0
-5 34 0
-5 26 0
6 -7 13 -15 554 0
6 -7 -13 -15 -554 0
-6 15 0
-6 13 -554 0
-6 7 0
-6 -13 554 0
7 -10 12 -514 0
7 -8 10 -12 0
7 10 -12 -514 0
7 -8 -10 12 0
-7 10 12 0
-7 -10 -12 0
-7 8 514 0
8 -9 506 0
8 9 -506 0
-8 -9 -506 0
-8 9 506 0
9 512 -513 0
9 -512 513 0
-9 -512 -513 0
-9 512 513 0
10 11 -522 0
-10 522 0
-10 -11 0
11 528 -529 0
11 -528 529 0
-11 -528 -529 0
-11 528 529 0
12 -523 -531 0
12 523 531 0
-12 523 -531 0
-12 -523 531 0
13 -14 -546 0
13 14 546 0
-13 -14 546 0
-13 14 -546 0
14 552 -553 0
14 -552 553 0
-14 -552 -553 0
-14 552 553 0
15 16 19 21 -22 0
15 16 -19 -21 -22 0
-15 22 0
-15 -19 21 0
-15 -16 0
-15 19 -21 0
16 -17 -511 -519 0
16 -17 511 519 0
-16 17 0
-16 -511 519 0
-16 511 -519 0
17 -18 -510 0
-17 510 0
-17 18 0
-9 18 -509 0
-18 509 0
9 -18 0
19 20 -554 0
-19 554 0
-19 -20 0
20 560 -561 0
20 -560 561 0
-20 -560 -561 0
-20 560 561 0
21 555 -563 0
21 -555 563 0
-21 -555 -563 0
-21 555 563 0
22 -538 -546 0
22 23 -25 538 0
22 23 -546 0
22 25 -538 0
-22 -23 538 0
-22 -25 -538 546 0
-22 25 538 546 0
23 -24 -530 0
23 24 530 0
-23 -24 530 0
-23 24 -530 0
24 536 -537 0
24 -536 537 0
-24 -536 -537 0
-24 536 537 0
25 544 -545 0
25 -544 545 0
-25 -544 -545 0
-25 544 545 0
26 27 -28 -32 0
26 -27 -28 32 0
-26 28 0
-26 -27 -32 0
-26 27 32 0
-9 27 -506 0
-27 506 0
9 -27 0
-23 28 29 0
28 -31 538 0
28 29 538 0
-23 28 -31 0
23 -28 -538 0
-28 -29 31 0
29 -30 -534 0
-29 534 0
-29 30 0
-24 30 -533 0
-30 533 0
24 -30 0
31 535 -543 0
31 -535 543 0
-31 -535 -543 0
-31 535 543 0
32 -33 -515 0
32 33 515 0
-32 -33 515 0
-32 33 -515 0
33 506 -507 0
33 -506 507 0
-33 -506 -507 0
-33 506 507 0
34 557 573 0
34 -35 -36 0
34 -36 557 0
34 -35 573 0
-34 35 -557 0
-34 36 -573 0
-14 35 549 0
14 35 -549 0
-14 -35 -549 0
14 -35 549 0
36 -37 565 0
36 37 -565 0
-36 -37 -565 0
-36 37 565 0
37 568 -569 0
37 -568 569 0
-37 -568 -569 0
-37 568 569 0
38 39 525 0
38 -40 -41 0
38 39 -41 0
38 -40 525 0
-38 -39 40 0
-38 41 -525 0
-19 39 -555 0
-39 555 0
19 -39 0
40 556 -564 0
40 -556 564 0
-40 -556 -564 0
-40 556 564 0
41 -42 517 0
41 42 -517 0
-41 -42 -517 0
-41 42 517 0
42 520 -521 0
42 -520 521 0
-42 -520 -521 0
-42 520 521 0
43 -44 -46 -48 -53 0
-43 53 0
-43 44 0
-43 48 0
-43 46 0
41 44 522 0
44 -45 -525 0
44 522 -525 0
41 44 -45 0
-44 45 -522 0
-41 -44 525 0
-42 45 -514 0
42 45 514 0
-42 -45 514 0
42 -45 -514 0
36 46 570 0
46 -47 -573 0
46 570 -573 0
36 46 -47 0
-46 47 -570 0
-36 -46 573 0
-37 47 -562 0
37 47 562 0
-37 -47 562 0
37 -47 -562 0
48 49 50 52 549 0
48 -49 50 52 -549 0
-48 -50 0
-48 49 -549 0
-48 -52 0
-48 -49 549 0
-25 49 541 0
25 49 -541 0
-25 -49 -541 0
25 -49 541 0
50 51 -562 0
-50 562 0
-50 -51 0
-20 51 -554 0
20 51 554 0
-20 -51 554 0
20 -51 -554 0
39 52 556 -564 0
39 52 -556 564 0
-39 -52 0
-52 556 564 0
-52 -556 -564 0
53 -54 60 -61 533 0
53 -54 -60 -61 -533 0
-53 61 0
-53 60 -533 0
-53 54 0
-53 -60 533 0
54 -55 58 -562 0
51 54 -55 58 0
-54 55 0
-54 -58 0
-51 -54 562 0
55 56 -57 -522 0
55 -56 57 -522 0
45 55 56 -57 0
45 55 -56 57 0
-55 56 57 0
-55 -56 -57 0
-45 -55 522 0
-25 56 -541 0
-56 541 0
25 -56 0
57 -542 -550 0
57 542 550 0
-57 542 -550 0
-57 -542 550 0
58 -59 -539 540 548 0
58 -59 -539 -540 -548 0
-58 59 0
-58 -540 548 0
-58 539 0
-58 540 -548 0
25 59 -538 0
-59 538 0
-25 -59 0
-11 60 525 0
11 60 -525 0
-11 -60 -525 0
11 -60 525 0
8 -17 61 0
61 62 514 0
8 61 62 0
-17 61 514 0
-8 -61 -514 0
17 -61 -62 0
62 511 -519 0
62 -511 519 0
-62 -511 -519 0
-62 511 519 0
63 64 -71 -86 0
63 67 -71 -86 0
-63 86 0
-63 71 0
-63 -64 -67 0
64 -65 -66 501 533 0
64 -65 -66 -501 -533 0
-64 66 0
-64 -501 533 0
-64 65 0
-64 501 -533 0
65 -502 532 0
65 -500 534 0
65 -500 -502 0
65 532 534 0
-65 502 -534 0
-65 500 -532 0
66 -499 503 -531 535 0
66 499 -503 531 -535 0
66 499 503 531 535 0
66 -499 -503 -531 -535 0
-66 -499 531 0
-66 499 -531 0
-66 503 -535 0
-66 -503 535 0
67 -68 -69 504 536 0
67 -68 -69 -504 -536 0
-67 69 0
-67 -504 536 0
-67 68 0
-67 504 -536 0
68 -505 -532 0
68 500 537 0
68 500 -505 0
68 -532 537 0
-68 -500 532 0
-68 505 -537 0
69 -70 -498 -530 0
69 -70 498 530 0
-69 70 0
-69 -498 530 0
-69 498 -530 0
70 502 505 0
70 -534 -537 0
70 502 -537 0
70 505 -534 0
-70 -502 534 0
-70 -505 537 0
71 75 79 0
71 72 82 0
71 75 82 0
71 72 79 0
-71 -72 -75 0
-71 -79 -82 0
72 -73 -74 500 540 0
72 -73 -74 -500 -540 0
-72 74 0
-72 -500 540 0
-72 73 0
-72 500 -540 0
73 -503 539 0
73 -499 543 0
73 -499 -503 0
73 539 543 0
-73 503 -543 0
-73 499 -539 0
74 -502 504 -542 544 0
74 502 -504 542 -544 0
74 502 504 542 544 0
74 -502 -504 -542 -544 0
-74 -502 542 0
-74 502 -542 0
-74 504 -544 0
-74 -504 544 0
75 -76 -78 505 545 0
75 -76 -78 -505 -545 0
-75 78 0
-75 -505 545 0
-75 76 0
-75 505 -545 0
76 -77 -498 -538 0
76 -77 498 538 0
-76 77 0
-76 -498 538 0
-76 498 -538 0
77 -501 -539 0
77 499 541 0
77 499 -501 0
77 -539 541 0
-77 -499 539 0
-77 501 -541 0
78 501 503 0
78 -541 -543 0
78 501 -543 0
78 503 -541 0
-78 -501 541 0
-78 -503 543 0
79 -80 -81 500 516 0
79 -80 -81 -500 -516 0
-79 81 0
-79 -500 516 0
-79 80 0
-79 500 -516 0
80 -503 515 0
80 -499 519 0
80 -499 -503 0
80 515 519 0
-80 503 -519 0
-80 499 -515 0
81 -502 504 -518 520 0
81 502 -504 518 -520 0
81 502 504 518 520 0
81 -502 -504 -518 -520 0
-81 -502 518 0
-81 502 -518 0
-81 504 -520 0
-81 -504 520 0
82 -83 -85 505 521 0
82 -83 -85 -505 -521 0
-82 85 0
-82 -505 521 0
-82 83 0
-82 505 -521 0
83 -84 -498 -514 0
83 -84 498 514 0
-83 84 0
-83 -498 514 0
-83 498 -514 0
84 -501 -515 0
84 499 517 0
84 499 -501 0
84 -515 517 0
-84 -499 515 0
-84 501 -517 0
85 501 503 0
85 -517 -519 0
85 501 -519 0
85 503 -517 0
-85 -501 517 0
-85 -503 519 0
86 87 98 -105 0
86 87 101 -105 0
-86 -87 0
-86 105 0
-86 -98 -101 0
87 -88 -91 -92 -95 0
-87 95 0
-87 88 0
-87 92 0
-87 91 0
88 89 90 500 572 0
88 89 90 -500 -572 0
-88 -89 0
-88 -500 572 0
-88 -90 0
-88 500 -572 0
89 499 -571 0
-89 -499 0
-89 571 0
90 -505 577 0
-90 505 0
-90 -577 0
91 -502 504 -574 576 0
91 502 -504 574 -576 0
91 502 504 574 576 0
91 -502 -504 -574 -576 0
-91 -502 574 0
-91 502 -574 0
-91 504 -576 0
-91 -504 576 0
92 93 94 501 573 0
92 93 94 -501 -573 0
-92 -93 0
-92 -501 573 0
-92 -94 0
-92 501 -573 0
93 -503 575 0
-93 503 0
-93 -575 0
94 -499 571 0
-94 499 0
-94 -571 0
95 96 97 498 570 0
95 96 97 -498 -570 0
-95 -96 0
-95 -498 570 0
-95 -97 0
-95 498 -570 0
96 505 -577 0
-96 -505 0
-96 577 0
97 503 -575 0
-97 -503 0
-97 575 0
98 -99 -100 501 557 0
98 -99 -100 -501 -557 0
-98 100 0
-98 -501 557 0
-98 99 0
-98 501 -557 0
99 -502 556 0
99 -500 558 0
99 -500 -502 0
99 556 558 0
-99 502 -558 0
-99 500 -556 0
100 -499 503 -555 559 0
100 499 -503 555 -559 0
100 499 503 555 559 0
100 -499 -503 -555 -559 0
-100 -499 555 0
-100 499 -555 0
-100 503 -559 0
-100 -503 559 0
101 -102 -103 504 560 0
101 -102 -103 -504 -560 0
-101 103 0
-101 -504 560 0
-101 102 0
-101 504 -560 0
102 -505 -556 0
102 500 561 0
102 500 -505 0
102 -556 561 0
-102 -500 556 0
-102 505 -561 0
103 -104 -498 -554 0
103 -104 498 554 0
-103 104 0
-103 -498 554 0
-103 498 -554 0
104 502 505 0
104 -558 -561 0
104 502 -561 0
104 505 -558 0
-104 -502 558 0
-104 -505 561 0
105 -106 121 132 0
105 -106 121 129 0
-105 106 0
-105 -121 0
-105 -129 -132 0
106 110 114 0
106 107 117 0
106 110 117 0
106 107 114 0
-106 -107 -110 0
-106 -114 -117 0
107 -108 -109 500 564 0
107 -108 -109 -500 -564 0
-107 109 0
-107 -500 564 0
-107 108 0
-107 500 -564 0
108 -503 563 0
108 -499 567 0
108 -499 -503 0
108 563 567 0
-108 503 -567 0
-108 499 -563 0
109 -502 504 -566 568 0
109 502 -504 566 -568 0
109 502 504 566 568 0
109 -502 -504 -566 -568 0
-109 -502 566 0
-109 502 -566 0
-109 504 -568 0
-109 -504 568 0
110 -111 -113 505 569 0
110 -111 -113 -505 -569 0
-110 113 0
-110 -505 569 0
-110 111 0
-110 505 -569 0
111 -112 -498 -562 0
111 -112 498 562 0
-111 112 0
-111 -498 562 0
-111 498 -562 0
112 -501 -563 0
112 499 565 0
112 499 -501 0
112 -563 565 0
-112 -499 563 0
-112 501 -565 0
113 501 503 0
113 -565 -567 0
113 501 -567 0
113 503 -565 0
-113 -501 565 0
-113 -503 567 0
114 -115 -116 500 524 0
114 -115 -116 -500 -524 0
-114 116 0
-114 -500 524 0
-114 115 0
-114 500 -524 0
115 -503 523 0
115 -499 527 0
115 -499 -503 0
115 523 527 0
-115 503 -527 0
-115 499 -523 0
116 -502 504 -526 528 0
116 502 -504 526 -528 0
116 502 504 526 528 0
116 -502 -504 -526 -528 0
-116 -502 526 0
-116 502 -526 0
-116 504 -528 0
-116 -504 528 0
117 -118 -119 498 522 0
117 -118 -119 -498 -522 0
-117 119 0
-117 -498 522 0
-117 118 0
-117 498 -522 0
118 -501 -523 0
118 499 525 0
118 499 -501 0
118 -523 525 0
-118 -499 523 0
-118 501 -525 0
119 -120 -505 -529 0
119 -120 505 529 0
-119 120 0
-119 -505 529 0
-119 505 -529 0
120 501 503 0
120 -525 -527 0
120 501 -527 0
120 503 -525 0
-120 -501 525 0
-120 -503 527 0
121 -122 -125 -127 -128 0
-121 128 0
-121 122 0
-121 127 0
-121 125 0
122 -123 -124 501 549 0
122 -123 -124 -501 -549 0
-122 124 0
-122 -501 549 0
-122 123 0
-122 501 -549 0
123 -502 548 0
123 -500 550 0
123 -500 -502 0
123 548 550 0
-123 502 -550 0
-123 500 -548 0
124 -499 503 -547 551 0
124 499 -503 547 -551 0
124 499 503 547 551 0
124 -499 -503 -547 -551 0
-124 -499 547 0
-124 499 -547 0
-124 503 -551 0
-124 -503 551 0
125 -126 -504 -552 0
125 -126 504 552 0
-125 126 0
-125 -504 552 0
-125 504 -552 0
126 -505 -548 0
126 500 553 0
126 500 -505 0
126 -548 553 0
-126 -500 548 0
-126 505 -553 0
127 502 505 0
127 -550 -553 0
127 502 -553 0
127 505 -550 0
-127 -502 550 0
-127 -505 553 0
128 -498 -546 0
128 498 546 0
-128 498 -546 0
-128 -498 546 0
129 -130 -131 501 509 0
129 -130 -131 -501 -509 0
-129 131 0
-129 -501 509 0
-129 130 0
-129 501 -509 0
130 -502 508 0
130 -500 510 0
130 -500 -502 0
130 508 510 0
-130 502 -510 0
-130 500 -508 0
131 -499 503 -507 511 0
131 499 -503 507 -511 0
131 499 503 507 511 0
131 -499 -503 -507 -511 0
-131 -499 507 0
-131 499 -507 0
-131 503 -511 0
-131 -503 511 0
132 -133 -134 504 512 0
132 -133 -134 -504 -512 0
-132 134 0
-132 -504 512 0
-132 133 0
-132 504 -512 0
133 -505 -508 0
133 500 513 0
133 500 -505 0
133 -508 513 0
-133 -500 508 0
-133 505 -513 0
134 -135 -498 -506 0
134 -135 498 506 0
-134 135 0
-134 -498 506 0
-134 498 -506 0
135 502 505 0
135 -510 -513 0
135 502 -513 0
135 505 -510 0
-135 -502 510 0
-135 -505 513 0
136 137 -140 -535 551 0
136 -137 -140 535 551 0
136 -137 140 535 -551 0
136 137 140 -535 -551 0
-136 -137 -535 0
-136 137 535 0
-136 140 551 0
-136 -140 -551 0
137 -138 -527 0
137 138 527 0
-137 -138 527 0
-137 138 -527 0
138 -139 -526 0
-138 526 0
-138 139 0
-11 139 -525 0
-139 525 0
11 -139 0
140 -141 -543 0
140 141 543 0
-140 -141 543 0
-140 141 -543 0
-56 141 -542 0
-141 542 0
56 -141 0
142 -143 -146 -156 -159 0
-142 159 0
-142 143 0
-142 156 0
-142 146 0
143 -144 145 -518 541 0
143 144 -145 518 -541 0
143 144 145 518 541 0
143 -144 -145 -518 -541 0
-143 144 -518 0
-143 -144 518 0
-143 -145 541 0
-143 145 -541 0
-18 144 510 0
18 144 -510 0
-18 -144 -510 0
18 -144 510 0
-24 145 533 0
24 145 -533 0
-24 -145 -533 0
24 -145 533 0
146 147 -148 154 -155 0
146 -147 -148 -154 -155 0
-146 155 0
-146 -147 154 0
-146 148 0
-146 147 -154 0
-37 147 -565 0
-147 565 0
37 -147 0
148 -149 -150 0
148 -150 -508 -516 0
148 -150 508 516 0
-148 150 0
-148 149 508 -516 0
-148 149 -508 516 0
9 149 -506 -507 0
-149 506 0
-149 507 0
-9 -149 0
150 -151 152 0
-139 150 153 0
-139 150 -151 0
150 152 153 0
-150 151 -153 0
139 -150 -152 0
14 151 -546 0
-151 546 0
-14 -151 0
152 526 -534 0
152 -526 534 0
-152 -526 -534 0
-152 526 534 0
153 547 -555 0
153 -547 555 0
-153 -547 -555 0
-153 547 555 0
154 566 -574 0
154 -566 574 0
-154 -566 -574 0
-154 566 574 0
139 151 155 0
-152 -153 155 0
139 -153 155 0
151 -152 155 0
-139 152 -155 0
-151 153 -155 0
156 -157 158 -517 530 0
156 157 -158 517 -530 0
156 157 158 517 530 0
156 -157 -158 -517 -530 0
-156 157 -517 0
-156 -157 517 0
-156 -158 530 0
-156 158 -530 0
-9 157 509 0
9 157 -509 0
-9 -157 -509 0
9 -157 509 0
-11 158 -522 0
11 158 522 0
-11 -158 522 0
11 -158 -522 0
159 -160 -163 559 -567 0
159 -160 163 559 567 0
159 160 -163 -559 567 0
159 160 163 -559 -567 0
-159 -160 -559 0
-159 163 559 -567 0
-159 160 163 567 0
-159 -163 559 567 0
-159 160 -163 -567 0
160 -161 -551 0
160 161 551 0
-160 -161 551 0
-160 161 -551 0
161 -162 -550 0
-161 550 0
-161 162 0
-14 162 -549 0
-162 549 0
14 -162 0
163 -164 -558 0
-163 558 0
-163 164 0
-20 164 -557 0
-164 557 0
20 -164 0
165 -166 -182 -194 -195 0
-165 195 0
-165 166 0
-165 194 0
-165 182 0
166 -167 176 178 -179 0
166 -167 -176 -178 -179 0
-166 179 0
-166 -176 178 0
-166 167 0
-166 176 -178 0
167 168 -169 -170 0
167 -168 169 -170 0
-167 170 0
-167 168 169 0
-167 -168 -169 0
-151 168 -547 0
-168 547 0
151 -168 0
169 -548 -556 0
169 548 556 0
-169 548 -556 0
-169 -548 556 0
170 -171 -175 0
170 172 173 0
170 -171 173 0
170 172 -175 0
-170 171 -172 0
-170 -173 175 0
-59 171 -539 0
-171 539 0
59 -171 0
172 540 -548 0
172 -540 548 0
-172 -540 -548 0
-172 540 548 0
173 -174 -518 0
-173 518 0
-173 174 0
-42 174 -517 0
-174 517 0
42 -174 0
175 519 -527 0
175 -519 527 0
-175 -519 -527 0
-175 519 527 0
176 -177 -531 0
-176 531 0
-176 177 0
24 177 -530 0
-177 530 0
-24 -177 0
178 532 -540 0
178 -532 540 0
-178 -532 -540 0
-178 532 540 0
179 -180 -565 0
179 181 546 0
179 546 -565 0
179 -180 181 0
-179 180 -546 0
-179 -181 565 0
-25 180 -538 0
25 180 538 0
-25 -180 538 0
25 -180 -538 0
-20 181 557 0
20 181 -557 0
-20 -181 -557 0
20 -181 557 0
182 -183 190 192 0
182 -183 -191 192 0
-182 183 0
-182 -192 0
-182 -190 191 0
183 -186 187 0
183 184 -189 0
183 184 187 0
183 -186 -189 0
-183 -184 186 0
-183 -187 189 0
184 -185 -563 0
-184 563 0
-184 185 0
37 185 -562 0
-185 562 0
-37 -185 0
186 564 -572 0
186 -564 572 0
-186 -564 -572 0
-186 564 572 0
187 -188 -515 0
-187 515 0
-187 188 0
42 188 -514 0
-188 514 0
-42 -188 0
189 516 -524 0
189 -516 524 0
-189 -516 -524 0
-189 516 524 0
-147 190 -566 0
-190 566 0
147 -190 0
191 567 -575 0
191 -567 575 0
-191 -567 -575 0
-191 567 575 0
192 193 524 -532 0
192 193 -524 532 0
-192 -193 0
-192 524 532 0
-192 -524 -532 0
-10 193 -523 0
-193 523 0
10 -193 0
47 194 565 0
-181 194 -570 0
194 565 -570 0
47 -181 194 0
181 -194 -565 0
-47 -194 570 0
-173 195 -196 0
175 193 195 0
-173 193 195 0
175 195 -196 0
173 -175 -195 0
-193 -195 196 0
196 524 -532 0
196 -524 532 0
-196 -524 -532 0
-196 524 532 0
197 -198 -219 -222 -240 0
-197 240 0
-197 198 0
-197 222 0
-197 219 0
198 -199 -213 -216 -218 0
-198 218 0
-198 199 0
-198 216 0
-198 213 0
199 -200 -203 -206 -211 0
-199 211 0
-199 200 0
-199 206 0
-199 203 0
149 185 200 0
200 -201 -202 0
149 200 -202 0
185 200 -201 0
-149 -200 201 0
-185 -200 202 0
201 508 -516 0
201 -508 516 0
-201 -508 -516 0
-201 508 516 0
202 563 -571 0
202 -563 571 0
-202 -563 -571 0
-202 563 571 0
-162 188 203 0
203 -204 205 0
188 203 205 0
-162 203 -204 0
-188 -203 204 0
162 -203 -205 0
204 515 -523 0
204 -515 523 0
-204 -515 -523 0
-204 515 523 0
205 550 -558 0
205 -550 558 0
-205 -550 -558 0
-205 550 558 0
-185 206 -207 0
206 -207 -563 -571 0
206 -207 563 571 0
-206 207 0
185 -206 563 -571 0
185 -206 -563 571 0
207 -208 -209 544 553 0
207 -208 -209 -544 -553 0
-207 209 0
-207 -544 553 0
-207 208 0
-207 544 -553 0
208 508 509 510 511 0
-208 -511 0
-208 -510 0
-208 -508 0
-208 -509 0
209 210 -521 537 0
209 210 -528 -537 0
-209 -210 0
-209 521 537 0
-209 528 -537 0
210 568 -577 0
210 -568 577 0
-210 -568 -577 0
-210 568 577 0
174 204 211 0
-188 211 -212 0
174 -188 211 0
204 211 -212 0
-174 -211 212 0
188 -204 -211 0
212 518 -526 0
212 -518 526 0
-212 -518 -526 0
-212 518 526 0
59 177 213 214 -215 0
59 -177 213 -214 -215 0
-59 -177 213 -214 215 0
-59 177 213 214 215 0
-177 -213 214 0
177 -213 -214 0
59 -213 215 0
-59 -213 -215 0
214 531 -539 0
214 -531 539 0
-214 -531 -539 0
-214 531 539 0
215 -539 -547 0
215 539 547 0
-215 539 -547 0
-215 -539 547 0
-30 162 216 0
-205 216 217 0
162 216 217 0
-30 -205 216 0
-162 205 -216 0
30 -216 -217 0
217 534 -542 0
217 -534 542 0
-217 -534 -542 0
-217 534 542 0
30 212 218 0
-174 -217 218 0
30 -174 218 0
212 -217 218 0
-30 217 -218 0
174 -212 -218 0
-184 219 -220 221 0
186 219 -220 221 0
-219 220 0
-219 -221 0
184 -186 -219 0
-187 191 220 0
189 -190 220 0
189 191 220 0
-187 -190 220 0
187 -189 -220 0
190 -191 -220 0
29 221 535 -543 0
29 221 -535 543 0
-29 -221 0
-221 535 543 0
-221 -535 -543 0
222 -223 -229 -234 -237 0
-222 237 0
-222 223 0
-222 234 0
-222 229 0
223 -224 520 529 -536 0
223 -224 -520 -529 536 0
-223 -520 -536 0
-223 529 536 0
-223 224 0
-223 520 -529 0
224 225 -226 -561 568 0
224 225 -226 561 -568 0
-224 226 0
-224 561 568 0
-224 -225 0
-224 -561 -568 0
225 -569 -576 0
-225 569 0
-225 576 0
226 227 228 545 -552 0
226 227 228 -545 552 0
-226 -227 0
-226 545 552 0
-226 -228 0
-226 -545 -552 0
227 -513 -520 0
-227 513 0
-227 520 0
228 569 576 0
-228 -569 0
-228 -576 0
229 -230 -231 536 545 0
229 -230 -231 -536 -545 0
-229 231 0
-229 -536 545 0
-229 230 0
-229 536 -545 0
230 537 -561 0
230 544 552 0
230 544 -561 0
230 537 552 0
-230 -537 -544 0
-230 -552 561 0
231 -232 233 -553 560 0
231 -232 233 553 -560 0
-231 -233 0
-231 553 560 0
-231 232 0
-231 -553 -560 0
232 512 513 0
-232 -512 0
-232 -513 0
233 -521 -528 0
-233 521 0
-233 528 0
234 235 236 512 521 0
234 235 236 -512 -521 0
-234 -235 0
-234 -512 521 0
-234 -236 0
-234 512 -521 0
235 560 -569 0
-235 -560 0
-235 569 0
236 513 520 0
-236 -513 0
-236 -520 0
237 -238 -239 -537 0
237 -238 -239 -544 0
-237 239 0
-237 238 0
-237 537 544 0
238 506 507 0
-238 -506 0
-238 -507 0
239 -552 -569 0
239 560 561 0
239 561 -569 0
239 -552 560 0
-239 -560 569 0
-239 552 -561 0
35 164 240 241 0
-164 240 -241 -557 0
164 240 241 -557 0
35 -164 240 -241 0
164 -240 -241 0
-164 -240 241 0
-35 -240 557 0
241 558 -566 0
241 -558 566 0
-241 -558 -566 0
-241 558 566 0
242 -243 -247 -254 484 0
242 243 -247 -254 -484 0
-242 254 0
-242 243 484 0
-242 247 0
-242 -243 -484 0
243 -244 -476 0
243 244 476 0
-243 -244 476 0
-243 244 -476 0
244 -245 -475 0
-244 475 0
-244 245 0
245 246 -474 0
-245 474 0
-245 -246 0
246 480 -481 0
246 -480 481 0
-246 -480 -481 0
-246 480 481 0
247 -248 -251 -438 478 0
247 248 -251 -438 -478 0
247 -248 251 438 478 0
247 248 251 438 -478 0
-247 -248 -478 0
-247 248 478 0
-247 -251 438 0
-247 251 -438 0
248 -249 -470 0
248 249 470 0
-248 -249 470 0
-248 249 -470 0
249 -250 -469 0
-249 469 0
-249 250 0
250 472 -473 0
250 -472 473 0
-250 -472 -473 0
-250 472 473 0
251 -252 430 0
251 252 -430 0
-251 -252 -430 0
-251 252 430 0
252 -253 -429 0
-252 429 0
-252 253 0
253 432 -433 0
253 -432 433 0
-253 -432 -433 0
-253 432 433 0
254 -255 -287 -302 -313 0
-254 313 0
-254 255 0
-254 302 0
-254 287 0
255 -256 -264 -272 -278 0
-255 278 0
-255 256 0
-255 272 0
-255 264 0
256 -258 262 0
256 257 -261 0
256 -258 -261 0
256 257 262 0
-256 261 -262 0
-256 -257 258 0
257 447 -455 0
257 -447 455 0
-257 -447 -455 0
-257 447 455 0
258 -259 -446 0
-258 446 0
-258 259 0
259 -260 -445 0
-259 445 0
-259 260 0
260 448 -449 0
260 -448 449 0
-260 -448 -449 0
-260 448 449 0
261 468 -476 0
261 -468 476 0
-261 -468 -476 0
-261 468 476 0
262 -263 -467 0
-262 467 0
-262 263 0
250 263 -466 0
-263 466 0
-250 -263 0
264 -266 270 0
264 265 -269 0
264 -266 -269 0
264 265 270 0
-264 269 -270 0
-264 -265 266 0
265 495 -503 0
265 -495 503 0
-265 -495 -503 0
-265 495 503 0
266 -267 -494 0
-266 494 0
-266 267 0
267 -268 -493 0
-267 493 0
-267 268 0
268 496 -497 0
268 -496 497 0
-268 -496 -497 0
-268 496 497 0
269 492 -500 0
269 -492 500 0
-269 -492 -500 0
-269 492 500 0
270 -271 -491 0
-270 491 0
-270 271 0
268 271 -490 0
-271 490 0
-268 -271 0
272 273 -275 0
272 276 466 0
272 273 276 0
272 -275 466 0
-272 -273 -466 0
-272 275 -276 0
273 -274 458 0
273 274 -458 0
-273 -274 -458 0
-273 274 458 0
274 464 -465 0
274 -464 465 0
-274 -464 -465 0
-274 464 465 0
275 479 -487 0
275 -479 487 0
-275 -479 -487 0
-275 479 487 0
276 -277 -478 0
-276 478 0
-276 277 0
-246 277 -477 0
-277 477 0
246 -277 0
278 -279 284 0
278 280 -283 0
278 280 284 0
278 -279 -283 0
-278 279 -280 0
-278 283 -284 0
279 487 -495 0
279 -487 495 0
-279 -487 -495 0
-279 487 495 0
280 -281 -486 0
-280 486 0
-280 281 0
281 -282 -485 0
-281 485 0
-281 282 0
282 488 -489 0
282 -488 489 0
-282 -488 -489 0
-282 488 489 0
283 455 -463 0
283 -455 463 0
-283 -455 -463 0
-283 455 463 0
284 -285 -454 0
-284 454 0
-284 285 0
285 -286 -453 0
-285 453 0
-285 286 0
286 456 -457 0
286 -456 457 0
-286 -456 -457 0
-286 456 457 0
287 288 -292 -299 0
287 -289 -292 -299 0
-287 299 0
-287 292 0
-287 -288 289 0
288 439 -447 0
288 -439 447 0
-288 -439 -447 0
-288 439 447 0
289 -290 -438 0
-289 438 0
-289 290 0
290 -291 -437 0
-290 437 0
-290 291 0
291 440 -441 0
291 -440 441 0
-291 -440 -441 0
-291 440 441 0
292 -293 -297 0
292 -295 296 0
292 -293 296 0
292 -295 -297 0
-292 293 295 0
-292 -296 297 0
293 -294 -483 0
-293 483 0
-293 294 0
282 294 -482 0
-294 482 0
-282 -294 0
295 -484 -492 0
295 484 492 0
-295 484 -492 0
-295 -484 492 0
296 460 -468 0
296 -460 468 0
-296 -460 -468 0
-296 460 468 0
297 -298 -459 0
-297 459 0
-297 298 0
274 298 -458 0
-298 458 0
-274 -298 0
-288 299 -300 301 0
289 299 -300 301 0
-299 300 0
-299 -301 0
288 -289 -299 0
-270 283 300 0
269 -284 300 0
269 283 300 0
-270 -284 300 0
-269 270 -300 0
-283 284 -300 0
-293 301 -484 -492 0
-293 301 484 492 0
293 -301 0
-301 -484 492 0
-301 484 -492 0
302 303 -305 -306 -309 0
302 -303 305 -306 -309 0
-302 309 0
-302 303 305 0
-302 306 0
-302 -303 -305 0
303 -304 -451 0
-303 451 0
-303 304 0
286 304 -450 0
-304 450 0
-286 -304 0
305 -452 -460 0
305 452 460 0
-305 452 -460 0
-305 -452 460 0
306 -442 485 0
306 -307 308 0
306 308 -442 0
306 -307 485 0
-306 307 442 0
-306 -308 -485 0
-291 307 434 0
291 307 -434 0
-291 -307 -434 0
291 -307 434 0
-246 308 -477 0
246 308 477 0
-246 -308 477 0
246 -308 -477 0
309 -310 312 -466 0
-273 309 -310 312 0
-309 310 0
-309 -312 0
273 -309 466 0
297 310 490 0
-296 310 311 0
-296 310 490 0
297 310 311 0
-310 -311 -490 0
296 -297 -310 0
-282 311 482 0
282 311 -482 0
-282 -311 -482 0
282 -311 482 0
-307 312 -442 0
-312 442 0
307 -312 0
313 -314 -315 -319 453 0
313 314 -315 -319 -453 0
-313 319 0
-313 314 453 0
-313 315 0
-313 -314 -453 0
-260 314 -445 0
260 314 445 0
-260 -314 445 0
260 -314 -445 0
315 -316 458 0
315 317 318 0
315 -316 317 0
315 318 458 0
-315 316 -318 0
-315 -317 -458 0
-252 316 -430 0
-316 430 0
252 -316 0
-286 317 450 0
286 317 -450 0
-286 -317 -450 0
286 -317 450 0
318 431 -439 0
318 -431 439 0
-318 -431 -439 0
-318 431 439 0
319 -320 323 -325 0
319 -320 323 -450 0
-319 320 0
-319 -323 0
-319 325 450 0
320 321 -322 0
320 437 469 0
320 -322 469 0
320 321 437 0
-320 -321 -469 0
-320 322 -437 0
-274 321 -461 0
274 321 461 0
-274 -321 461 0
274 -321 -461 0
-253 322 429 0
253 322 -429 0
-253 -322 -429 0
253 -322 429 0
323 324 474 0
-323 -474 0
-323 -324 0
-250 324 466 0
250 324 -466 0
-250 -324 -466 0
250 -324 466 0
-260 325 442 0
260 325 -442 0
-260 -325 -442 0
260 -325 442 0
326 -327 -333 -336 -339 0
-326 339 0
-326 327 0
-326 336 0
-326 333 0
327 328 330 331 435 0
327 328 -330 331 -435 0
-327 -328 0
-327 330 -435 0
-327 -331 0
-327 -330 435 0
328 -329 -475 0
-328 475 0
-328 329 0
-263 329 -467 0
263 329 467 0
-263 -329 467 0
263 -329 -467 0
330 426 -427 0
-253 330 -427 0
253 330 -426 427 0
-253 -330 427 0
-330 426 427 0
253 -330 -426 -427 0
331 -332 -502 0
-331 502 0
-331 332 0
-267 332 -494 0
267 332 494 0
-267 -332 494 0
267 -332 -494 0
333 334 -483 0
333 -335 454 0
333 454 -483 0
333 334 -335 0
-333 335 483 0
-333 -334 -454 0
-259 334 -446 0
259 334 446 0
-259 -334 446 0
259 -334 -446 0
-245 335 -475 0
245 335 475 0
-245 -335 475 0
245 -335 -475 0
336 337 -338 461 498 0
336 -337 -338 461 -498 0
336 -337 338 -461 -498 0
336 337 338 -461 498 0
-336 -338 -461 0
-336 338 461 0
-336 337 -498 0
-336 -337 498 0
-268 337 -490 0
268 337 490 0
-268 -337 490 0
268 -337 -490 0
-286 338 -453 0
286 338 453 0
-286 -338 453 0
286 -338 -453 0
339 -340 -342 -346 -348 0
-339 348 0
-339 340 0
-339 346 0
-339 342 0
340 467 -475 0
-263 340 341 -467 0
263 340 467 0
340 341 -475 0
-340 -341 -467 0
-263 -340 467 475 0
263 -340 -467 475 0
-298 341 -459 0
298 341 459 0
-298 -341 459 0
298 -341 -459 0
342 343 494 0
342 345 443 0
342 343 345 0
342 443 494 0
-342 -343 -443 0
-342 -345 -494 0
343 -344 -435 0
343 344 435 0
-343 -344 435 0
-343 344 -435 0
291 344 -434 0
-344 434 0
-291 -344 0
-281 345 -486 0
281 345 486 0
-281 -345 486 0
281 -345 -486 0
346 347 -494 0
-345 346 446 0
346 446 -494 0
-345 346 347 0
-346 -347 -446 0
345 -346 494 0
-290 347 -438 0
290 347 438 0
-290 -347 438 0
290 -347 -438 0
-332 348 -470 0
348 -349 -502 0
348 -470 -502 0
-332 348 -349 0
332 -348 502 0
-348 349 470 0
349 -350 -462 0
349 350 462 0
-349 -350 462 0
-349 350 -462 0
-274 350 -461 0
-350 461 0
274 -350 0
351 -352 -378 -388 -398 0
-351 398 0
-351 352 0
-351 388 0
-351 378 0
352 -353 -356 -357 -371 0
-352 371 0
-352 353 0
-352 357 0
-352 356 0
335 353 354 0
353 451 483 0
353 354 483 0
335 353 451 0
-335 -353 -483 0
-353 -354 -451 0
354 -355 -443 0
354 355 443 0
-354 -355 443 0
-354 355 -443 0
260 355 -442 0
-355 442 0
-260 -355 0
356 -454 462 0
-285 -334 356 454 0
285 356 -454 0
-334 356 462 0
334 -356 454 0
-285 -356 -454 -462 0
285 -356 454 -462 0
357 -358 -361 -365 -366 0
-357 366 0
-357 358 0
-357 365 0
-357 361 0
-304 358 359 -360 0
304 358 -359 -360 0
-277 304 358 -359 0
-277 -304 358 359 0
-304 -358 -359 0
304 -358 359 0
277 -358 360 0
359 -451 -459 0
359 451 459 0
-359 451 -459 0
-359 -451 459 0
360 -478 -486 0
360 478 486 0
-360 478 -486 0
-360 -478 486 0
-271 361 -364 0
361 -362 363 0
-271 361 363 0
361 -362 -364 0
271 -361 362 0
-361 -363 364 0
362 -491 -499 0
362 491 499 0
-362 491 -499 0
-362 -491 499 0
253 363 -426 -427 0
-363 426 0
-363 427 0
-253 -363 0
364 428 -436 0
364 -428 436 0
-364 -428 -436 0
-364 428 436 0
360 -363 365 0
277 364 365 0
360 364 365 0
277 -363 365 0
-277 -360 -365 0
363 -364 -365 0
366 367 368 -369 -370 0
366 -367 -368 -369 -370 0
366 367 368 369 370 0
366 -367 -368 369 370 0
-366 367 -368 0
-366 -367 368 0
-366 369 -370 0
-366 -369 370 0
367 436 -444 0
367 -436 444 0
-367 -436 -444 0
-367 436 444 0
-344 368 -435 0
-368 435 0
344 -368 0
369 444 -452 0
369 -444 452 0
-369 -444 -452 0
-369 444 452 0
-355 370 -443 0
-370 443 0
355 -370 0
371 -372 -373 -375 -377 0
-371 377 0
-371 372 0
-371 375 0
-371 373 0
-341 372 -446 0
-347 372 -467 0
372 -446 -467 0
-341 -347 372 0
341 -372 467 0
347 -372 446 0
373 -451 491 0
-354 373 374 0
373 374 -451 0
-354 373 491 0
354 -373 451 0
-373 -374 -491 0
-294 374 -483 0
294 374 483 0
-294 -374 483 0
294 -374 -483 0
375 -376 -491 0
-374 375 -462 0
375 -462 -491 0
-374 375 -376 0
374 -375 491 0
-375 376 462 0
-285 376 -454 0
285 376 454 0
-285 -376 454 0
285 -376 -454 0
377 -443 470 0
-343 349 377 0
349 377 -443 0
-343 377 470 0
343 -377 443 0
-349 -377 -470 0
378 -379 -380 -383 -386 0
-378 386 0
-378 379 0
-378 383 0
-378 380 0
-321 379 -437 0
322 379 -469 0
379 -437 -469 0
-321 322 379 0
-322 -379 437 0
321 -379 469 0
380 482 -493 0
380 381 382 0
380 381 -493 0
380 382 482 0
-380 -382 493 0
-380 -381 -482 0
-246 381 474 0
246 381 -474 0
-246 -381 -474 0
246 -381 474 0
-282 382 485 0
282 382 -485 0
-282 -382 -485 0
282 -382 485 0
-318 383 384 0
316 383 -385 0
316 383 384 0
-318 383 -385 0
-316 318 -383 0
-383 -384 385 0
384 471 -479 0
384 -471 479 0
-384 -471 -479 0
-384 471 479 0
-249 385 -470 0
-385 470 0
249 -385 0
386 387 -490 0
-311 386 445 0
386 445 -490 0
-311 386 387 0
-386 -387 -445 0
311 -386 490 0
-291 387 -437 0
291 387 437 0
-291 -387 437 0
291 -387 -437 0
388 -389 392 -393 -394 0
388 -389 -392 393 -394 0
-388 394 0
-388 -392 -393 0
-388 389 0
-388 392 393 0
389 -434 501 0
389 -390 391 0
389 391 -434 0
389 -390 501 0
-389 390 434 0
-389 -391 -501 0
-253 390 426 0
253 390 -426 0
-253 -390 -426 0
253 -390 426 0
-268 391 -493 0
268 391 493 0
-268 -391 493 0
268 -391 -493 0
-350 392 -462 0
-392 462 0
350 -392 0
393 -463 -471 0
393 463 471 0
-393 463 -471 0
-393 -463 471 0
394 -395 396 477 0
394 -395 396 397 0
-394 395 0
-394 -396 0
-394 -397 -477 0
395 493 -501 0
-268 -382 395 -493 0
268 395 493 0
-382 395 -501 0
382 -395 -493 0
-268 -395 493 501 0
268 -395 -493 501 0
387 396 445 0
-396 -445 0
-387 -396 0
-250 397 -469 0
250 397 469 0
-250 -397 469 0
250 -397 -469 0
398 -399 -400 -401 -421 0
-398 421 0
-398 399 0
-398 401 0
-398 400 0
-276 279 399 0
275 -280 399 0
275 279 399 0
-276 -280 399 0
-275 276 -399 0
-279 280 -399 0
-257 266 400 0
258 -265 400 0
258 266 400 0
-257 -265 400 0
257 -258 -400 0
265 -266 -400 0
401 -402 -414 474 0
324 401 -402 -414 0
-401 414 0
-401 402 0
-324 -401 -474 0
271 402 -403 -411 0
362 402 -403 -411 0
-402 411 0
-402 403 0
-271 -362 -402 0
403 -404 -407 -409 -410 0
-403 410 0
-403 404 0
-403 409 0
-403 407 0
404 -405 480 489 -496 0
404 -405 -480 -489 496 0
-404 -480 -496 0
-404 489 496 0
-404 405 0
-404 480 -489 0
405 406 481 0
405 406 465 -472 0
-405 -406 0
-405 -465 -481 0
-405 472 -481 0
406 441 457 0
406 -432 441 0
-406 -441 0
-406 432 -457 0
407 -408 -464 -473 0
407 -408 464 -480 0
-407 408 0
-407 -464 473 0
-407 464 480 0
408 441 -448 0
408 448 457 0
-408 -441 -448 0
-408 448 -457 0
409 432 433 -440 0
-409 440 0
-409 -433 0
-409 -432 0
410 428 429 430 431 0
-410 -431 0
-410 -430 0
-410 -428 0
-410 -429 0
411 412 -413 -457 464 0
411 412 -413 457 -464 0
-411 413 0
-411 457 464 0
-411 -412 0
-411 -457 -464 0
412 -472 481 0
412 465 481 0
-412 -481 0
-412 -465 472 0
413 440 -456 -465 0
413 -449 -456 -465 0
413 -440 -449 456 465 0
-413 440 456 0
-413 -440 449 0
-413 456 -465 0
-413 -456 465 0
414 -415 -416 449 0
414 -415 -416 456 0
-414 416 0
-414 415 0
-414 -449 -456 0
415 480 481 0
415 473 488 0
415 480 488 0
415 473 481 0
-415 -473 -480 0
-415 -481 -488 0
416 -417 -418 -419 -420 0
-416 420 0
-416 417 0
-416 419 0
-416 418 0
417 -488 -497 0
417 -481 497 0
-417 481 497 0
-417 488 -497 0
418 -496 -504 0
418 -497 505 0
418 -496 -497 0
418 -504 505 0
-418 496 -505 0
-418 497 504 0
419 426 427 441 0
419 426 427 -432 0
-419 -426 0
-419 -427 0
-419 432 -441 0
420 504 -505 0
420 496 497 0
420 497 -505 0
420 496 504 0
-420 -497 -504 0
-420 -496 505 0
421 -422 -423 -424 -425 0
-421 425 0
-421 422 0
-421 424 0
-421 423 0
390 422 -485 0
-308 422 434 0
422 434 -485 0
-308 390 422 0
-390 -422 -434 0
308 -422 485 0
325 423 -482 0
-381 423 450 0
423 450 -482 0
325 -381 423 0
381 -423 482 0
-325 -423 -450 0
-317 -384 424 0
385 424 -458 0
-384 424 -458 0
-317 385 424 0
384 -385 -424 0
317 -424 458 0
261 425 -477 0
-262 -397 425 0
261 -397 425 0
-262 425 -477 0
-261 262 -425 0
397 -425 477 0
1 2 0
-1 -2 0
578 0

